c File: data_files/evolved_graphs/g0144.col
c
c Auto generated graph
c
p edge 100 1850
e 1 6
e 1 12
e 1 23
e 1 46
e 1 47
e 1 48
e 1 70
e 1 73
e 1 86
e 1 87
e 1 88
e 1 91
e 1 92
e 2 3
e 2 13
e 2 22
e 2 49
e 2 83
e 2 84
e 2 85
e 2 86
e 2 87
e 2 88
e 2 90
e 2 91
e 2 92
e 2 94
e 2 95
e 2 96
e 2 98
e 3 5
e 3 7
e 3 8
e 3 12
e 3 14
e 3 22
e 3 26
e 3 47
e 3 49
e 3 51
e 3 65
e 3 75
e 3 76
e 3 84
e 3 86
e 3 87
e 3 89
e 3 92
e 3 98
e 3 100
e 4 6
e 4 10
e 4 13
e 4 15
e 4 21
e 4 25
e 4 26
e 4 35
e 4 36
e 4 38
e 4 39
e 4 40
e 4 41
e 4 42
e 4 43
e 4 44
e 4 46
e 4 66
e 4 84
e 4 86
e 4 89
e 4 90
e 4 96
e 5 6
e 5 7
e 5 24
e 5 25
e 5 28
e 5 35
e 5 36
e 5 37
e 5 38
e 5 39
e 5 40
e 5 41
e 5 42
e 5 43
e 5 44
e 5 83
e 5 84
e 5 85
e 5 86
e 5 87
e 5 88
e 5 91
e 6 17
e 6 19
e 6 20
e 6 21
e 6 22
e 6 35
e 6 36
e 6 37
e 6 38
e 6 39
e 6 40
e 6 41
e 6 42
e 6 43
e 6 44
e 6 45
e 6 47
e 6 49
e 6 50
e 6 52
e 6 53
e 6 54
e 6 55
e 6 56
e 6 57
e 6 58
e 6 59
e 6 60
e 6 61
e 6 62
e 6 64
e 6 65
e 6 70
e 6 83
e 6 84
e 6 85
e 6 86
e 6 91
e 7 13
e 7 17
e 7 18
e 7 19
e 7 20
e 7 21
e 7 22
e 7 35
e 7 36
e 7 37
e 7 38
e 7 39
e 7 40
e 7 41
e 7 42
e 7 43
e 7 44
e 7 47
e 7 48
e 7 49
e 7 50
e 7 51
e 7 52
e 7 53
e 7 54
e 7 55
e 7 56
e 7 57
e 7 58
e 7 59
e 7 60
e 7 61
e 7 62
e 7 66
e 7 69
e 7 72
e 7 83
e 7 85
e 7 87
e 7 89
e 7 91
e 7 92
e 7 93
e 7 97
e 8 14
e 8 15
e 8 16
e 8 17
e 8 18
e 8 19
e 8 20
e 8 21
e 8 22
e 8 23
e 8 24
e 8 25
e 8 26
e 8 27
e 8 35
e 8 36
e 8 37
e 8 38
e 8 39
e 8 40
e 8 41
e 8 42
e 8 43
e 8 44
e 8 47
e 8 48
e 8 52
e 8 54
e 8 55
e 8 56
e 8 57
e 8 58
e 8 59
e 8 60
e 8 62
e 8 63
e 8 65
e 8 72
e 8 81
e 8 84
e 8 85
e 8 86
e 8 87
e 8 88
e 8 89
e 8 90
e 8 91
e 8 98
e 8 99
e 9 12
e 9 14
e 9 15
e 9 16
e 9 17
e 9 18
e 9 19
e 9 20
e 9 21
e 9 22
e 9 23
e 9 24
e 9 25
e 9 35
e 9 36
e 9 37
e 9 38
e 9 39
e 9 40
e 9 41
e 9 42
e 9 43
e 9 44
e 9 45
e 9 47
e 9 51
e 9 52
e 9 53
e 9 54
e 9 55
e 9 56
e 9 57
e 9 58
e 9 60
e 9 61
e 9 62
e 9 71
e 9 72
e 9 83
e 9 84
e 9 85
e 9 86
e 9 87
e 9 88
e 9 89
e 9 90
e 9 91
e 9 92
e 9 94
e 9 95
e 10 14
e 10 15
e 10 16
e 10 17
e 10 18
e 10 19
e 10 20
e 10 21
e 10 22
e 10 23
e 10 24
e 10 25
e 10 26
e 10 35
e 10 36
e 10 37
e 10 38
e 10 39
e 10 40
e 10 41
e 10 42
e 10 43
e 10 44
e 10 49
e 10 50
e 10 52
e 10 53
e 10 54
e 10 55
e 10 57
e 10 58
e 10 59
e 10 60
e 10 61
e 10 62
e 10 84
e 10 87
e 10 91
e 10 92
e 11 14
e 11 15
e 11 16
e 11 17
e 11 18
e 11 19
e 11 20
e 11 21
e 11 22
e 11 23
e 11 24
e 11 25
e 11 26
e 11 35
e 11 36
e 11 37
e 11 38
e 11 40
e 11 41
e 11 42
e 11 43
e 11 44
e 11 49
e 11 52
e 11 53
e 11 54
e 11 55
e 11 56
e 11 57
e 11 58
e 11 60
e 11 61
e 11 62
e 11 75
e 11 84
e 11 85
e 11 86
e 11 87
e 11 89
e 11 90
e 11 92
e 12 14
e 12 15
e 12 16
e 12 17
e 12 18
e 12 19
e 12 20
e 12 21
e 12 22
e 12 23
e 12 24
e 12 25
e 12 26
e 12 35
e 12 36
e 12 37
e 12 38
e 12 39
e 12 40
e 12 41
e 12 42
e 12 43
e 12 44
e 12 46
e 12 48
e 12 52
e 12 53
e 12 54
e 12 55
e 12 56
e 12 57
e 12 58
e 12 59
e 12 60
e 12 61
e 12 62
e 12 74
e 12 79
e 12 83
e 12 84
e 12 86
e 12 89
e 12 90
e 13 17
e 13 18
e 13 21
e 13 35
e 13 36
e 13 37
e 13 38
e 13 39
e 13 40
e 13 41
e 13 42
e 13 43
e 13 44
e 13 45
e 13 46
e 13 48
e 13 49
e 13 52
e 13 53
e 13 54
e 13 55
e 13 56
e 13 57
e 13 58
e 13 61
e 13 62
e 13 74
e 13 80
e 13 83
e 13 84
e 13 85
e 13 86
e 13 87
e 13 88
e 13 89
e 13 90
e 13 92
e 14 16
e 14 17
e 14 20
e 14 26
e 14 33
e 14 35
e 14 36
e 14 37
e 14 38
e 14 39
e 14 40
e 14 41
e 14 42
e 14 43
e 14 44
e 14 45
e 14 46
e 14 47
e 14 49
e 14 52
e 14 53
e 14 54
e 14 55
e 14 57
e 14 58
e 14 59
e 14 60
e 14 61
e 14 83
e 14 84
e 14 85
e 14 86
e 14 87
e 14 88
e 14 89
e 14 90
e 14 91
e 15 17
e 15 18
e 15 19
e 15 22
e 15 24
e 15 35
e 15 36
e 15 37
e 15 38
e 15 39
e 15 40
e 15 41
e 15 42
e 15 43
e 15 44
e 15 45
e 15 51
e 15 52
e 15 53
e 15 54
e 15 55
e 15 56
e 15 57
e 15 58
e 15 59
e 15 60
e 15 61
e 15 62
e 15 68
e 15 77
e 15 83
e 15 85
e 15 88
e 15 89
e 15 90
e 15 92
e 15 99
e 15 100
e 16 20
e 16 21
e 16 24
e 16 35
e 16 36
e 16 37
e 16 38
e 16 39
e 16 40
e 16 41
e 16 42
e 16 43
e 16 44
e 16 49
e 16 52
e 16 53
e 16 54
e 16 55
e 16 56
e 16 57
e 16 58
e 16 60
e 16 61
e 16 62
e 16 66
e 16 67
e 16 76
e 16 83
e 16 84
e 16 85
e 16 87
e 16 89
e 16 90
e 16 91
e 16 100
e 17 18
e 17 19
e 17 21
e 17 22
e 17 23
e 17 24
e 17 26
e 17 35
e 17 36
e 17 37
e 17 38
e 17 39
e 17 40
e 17 41
e 17 42
e 17 43
e 17 44
e 17 46
e 17 47
e 17 52
e 17 53
e 17 54
e 17 55
e 17 56
e 17 57
e 17 58
e 17 60
e 17 61
e 17 62
e 17 74
e 17 79
e 17 86
e 17 90
e 17 91
e 17 92
e 17 98
e 18 19
e 18 21
e 18 22
e 18 23
e 18 24
e 18 25
e 18 26
e 18 36
e 18 37
e 18 38
e 18 39
e 18 40
e 18 41
e 18 42
e 18 43
e 18 44
e 18 45
e 18 46
e 18 48
e 18 52
e 18 53
e 18 54
e 18 55
e 18 56
e 18 57
e 18 58
e 18 59
e 18 60
e 18 61
e 18 62
e 18 71
e 18 76
e 18 78
e 18 83
e 18 86
e 18 88
e 18 89
e 18 90
e 18 91
e 18 92
e 18 100
e 19 21
e 19 22
e 19 23
e 19 24
e 19 25
e 19 26
e 19 35
e 19 36
e 19 37
e 19 38
e 19 39
e 19 40
e 19 41
e 19 42
e 19 43
e 19 44
e 19 45
e 19 53
e 19 54
e 19 55
e 19 56
e 19 57
e 19 58
e 19 59
e 19 60
e 19 62
e 19 83
e 19 86
e 19 87
e 19 90
e 19 92
e 19 94
e 19 100
e 20 21
e 20 22
e 20 23
e 20 24
e 20 25
e 20 26
e 20 27
e 20 35
e 20 36
e 20 37
e 20 38
e 20 39
e 20 40
e 20 41
e 20 42
e 20 43
e 20 44
e 20 48
e 20 49
e 20 52
e 20 53
e 20 54
e 20 56
e 20 57
e 20 58
e 20 59
e 20 60
e 20 61
e 20 62
e 20 63
e 20 64
e 20 65
e 20 67
e 20 72
e 20 78
e 20 83
e 20 84
e 20 86
e 20 88
e 20 90
e 21 26
e 21 35
e 21 36
e 21 37
e 21 38
e 21 39
e 21 40
e 21 41
e 21 42
e 21 43
e 21 44
e 21 45
e 21 46
e 21 52
e 21 53
e 21 54
e 21 55
e 21 56
e 21 57
e 21 58
e 21 60
e 21 61
e 21 62
e 21 63
e 21 64
e 21 65
e 21 66
e 21 67
e 21 68
e 21 74
e 21 75
e 21 78
e 21 86
e 21 87
e 21 91
e 22 35
e 22 36
e 22 37
e 22 38
e 22 39
e 22 40
e 22 41
e 22 43
e 22 44
e 22 48
e 22 50
e 22 52
e 22 53
e 22 54
e 22 55
e 22 56
e 22 57
e 22 58
e 22 59
e 22 60
e 22 61
e 22 63
e 22 64
e 22 65
e 22 66
e 22 67
e 22 68
e 22 73
e 22 79
e 22 80
e 22 83
e 22 84
e 22 86
e 22 87
e 22 89
e 22 90
e 22 91
e 22 98
e 23 24
e 23 27
e 23 28
e 23 29
e 23 30
e 23 31
e 23 35
e 23 36
e 23 37
e 23 38
e 23 39
e 23 40
e 23 41
e 23 42
e 23 43
e 23 44
e 23 46
e 23 51
e 23 52
e 23 53
e 23 54
e 23 55
e 23 56
e 23 57
e 23 58
e 23 59
e 23 60
e 23 61
e 23 62
e 23 63
e 23 64
e 23 65
e 23 66
e 23 67
e 23 78
e 23 83
e 23 85
e 23 87
e 23 89
e 23 90
e 23 91
e 23 92
e 24 27
e 24 28
e 24 30
e 24 35
e 24 36
e 24 37
e 24 38
e 24 39
e 24 40
e 24 41
e 24 42
e 24 43
e 24 44
e 24 52
e 24 53
e 24 54
e 24 55
e 24 56
e 24 57
e 24 58
e 24 59
e 24 60
e 24 61
e 24 62
e 24 63
e 24 64
e 24 65
e 24 66
e 24 67
e 24 69
e 24 77
e 24 83
e 24 86
e 24 87
e 24 88
e 24 90
e 25 26
e 25 27
e 25 28
e 25 29
e 25 30
e 25 31
e 25 35
e 25 36
e 25 37
e 25 38
e 25 39
e 25 40
e 25 41
e 25 42
e 25 44
e 25 46
e 25 50
e 25 52
e 25 53
e 25 54
e 25 55
e 25 56
e 25 57
e 25 58
e 25 59
e 25 60
e 25 61
e 25 62
e 25 63
e 25 64
e 25 65
e 25 66
e 25 74
e 25 75
e 25 76
e 25 83
e 25 85
e 25 87
e 25 89
e 25 90
e 25 91
e 25 92
e 25 96
e 26 28
e 26 29
e 26 30
e 26 31
e 26 35
e 26 36
e 26 37
e 26 38
e 26 39
e 26 40
e 26 41
e 26 43
e 26 44
e 26 45
e 26 47
e 26 50
e 26 52
e 26 53
e 26 54
e 26 55
e 26 56
e 26 57
e 26 58
e 26 59
e 26 60
e 26 61
e 26 63
e 26 64
e 26 65
e 26 66
e 26 67
e 26 75
e 26 79
e 26 83
e 26 84
e 26 86
e 26 89
e 26 90
e 26 91
e 26 92
e 26 94
e 26 96
e 27 29
e 27 32
e 27 33
e 27 34
e 27 35
e 27 36
e 27 37
e 27 38
e 27 39
e 27 40
e 27 41
e 27 42
e 27 43
e 27 44
e 27 48
e 27 52
e 27 53
e 27 54
e 27 55
e 27 56
e 27 59
e 27 60
e 27 61
e 27 63
e 27 64
e 27 65
e 27 66
e 27 67
e 27 75
e 27 76
e 27 83
e 27 85
e 27 86
e 27 89
e 27 90
e 27 91
e 27 92
e 28 30
e 28 33
e 28 34
e 28 35
e 28 36
e 28 37
e 28 38
e 28 39
e 28 40
e 28 41
e 28 42
e 28 43
e 28 44
e 28 48
e 28 50
e 28 63
e 28 64
e 28 65
e 28 66
e 28 74
e 28 76
e 28 83
e 28 87
e 28 92
e 28 100
e 29 32
e 29 33
e 29 34
e 29 35
e 29 36
e 29 37
e 29 38
e 29 39
e 29 40
e 29 41
e 29 42
e 29 43
e 29 47
e 29 48
e 29 63
e 29 64
e 29 65
e 29 66
e 29 67
e 29 84
e 29 85
e 29 86
e 29 87
e 29 89
e 29 90
e 29 92
e 30 32
e 30 34
e 30 35
e 30 36
e 30 37
e 30 38
e 30 39
e 30 40
e 30 41
e 30 42
e 30 43
e 30 44
e 30 54
e 30 63
e 30 64
e 30 65
e 30 66
e 30 67
e 30 71
e 30 83
e 30 85
e 30 87
e 30 88
e 30 89
e 30 90
e 30 94
e 31 33
e 31 34
e 31 35
e 31 36
e 31 37
e 31 38
e 31 39
e 31 40
e 31 41
e 31 42
e 31 43
e 31 44
e 31 46
e 31 47
e 31 48
e 31 64
e 31 65
e 31 66
e 31 67
e 31 69
e 31 75
e 31 88
e 31 89
e 31 92
e 32 33
e 32 34
e 32 35
e 32 36
e 32 38
e 32 39
e 32 40
e 32 41
e 32 42
e 32 43
e 32 44
e 32 48
e 32 51
e 32 75
e 32 77
e 32 87
e 32 88
e 32 89
e 32 90
e 32 91
e 32 92
e 32 94
e 32 95
e 32 96
e 32 97
e 32 98
e 32 99
e 32 100
e 33 35
e 33 36
e 33 37
e 33 38
e 33 39
e 33 40
e 33 41
e 33 42
e 33 43
e 33 44
e 33 86
e 33 87
e 33 88
e 33 89
e 33 90
e 33 91
e 33 92
e 33 93
e 33 94
e 33 95
e 33 96
e 33 97
e 33 98
e 33 99
e 33 100
e 34 35
e 34 36
e 34 37
e 34 38
e 34 39
e 34 40
e 34 41
e 34 42
e 34 43
e 34 44
e 34 50
e 34 78
e 34 87
e 34 88
e 34 89
e 34 90
e 34 91
e 34 92
e 34 93
e 34 94
e 34 95
e 34 96
e 34 97
e 34 100
e 35 39
e 35 57
e 35 58
e 35 73
e 35 76
e 35 79
e 35 80
e 36 42
e 36 44
e 36 61
e 36 62
e 36 63
e 36 71
e 36 75
e 36 77
e 36 81
e 36 88
e 37 39
e 37 43
e 37 55
e 37 61
e 37 69
e 37 76
e 37 79
e 37 81
e 37 84
e 38 41
e 38 42
e 38 47
e 38 56
e 38 60
e 38 77
e 38 78
e 39 45
e 39 50
e 39 52
e 39 53
e 39 54
e 39 56
e 39 59
e 39 66
e 39 71
e 39 77
e 39 79
e 39 81
e 39 83
e 39 85
e 40 42
e 40 43
e 40 50
e 40 51
e 40 69
e 40 70
e 40 75
e 40 78
e 40 99
e 41 42
e 41 44
e 41 48
e 41 49
e 41 51
e 41 62
e 41 68
e 41 78
e 41 80
e 42 45
e 42 55
e 42 57
e 42 59
e 42 60
e 42 61
e 42 65
e 42 70
e 42 76
e 43 44
e 43 46
e 43 47
e 43 59
e 43 65
e 43 66
e 43 72
e 43 76
e 43 77
e 43 78
e 44 53
e 44 64
e 44 73
e 44 78
e 45 52
e 45 62
e 45 64
e 45 66
e 45 69
e 45 72
e 45 81
e 45 84
e 46 61
e 46 64
e 46 75
e 46 78
e 46 80
e 46 81
e 46 83
e 46 100
e 47 51
e 47 56
e 47 59
e 47 63
e 47 71
e 47 74
e 47 81
e 47 86
e 47 88
e 47 93
e 48 67
e 48 70
e 48 76
e 48 84
e 48 93
e 49 60
e 49 64
e 49 68
e 49 71
e 49 81
e 50 62
e 50 71
e 50 75
e 50 78
e 50 79
e 50 80
e 50 81
e 50 83
e 50 84
e 50 92
e 51 52
e 51 55
e 51 56
e 51 57
e 51 78
e 51 83
e 51 85
e 52 69
e 52 72
e 52 85
e 53 54
e 53 72
e 53 75
e 53 80
e 53 84
e 54 62
e 54 67
e 54 70
e 54 72
e 54 76
e 54 79
e 54 82
e 54 84
e 54 85
e 54 95
e 55 58
e 55 59
e 55 64
e 55 65
e 55 72
e 55 85
e 56 66
e 56 69
e 56 70
e 56 83
e 56 86
e 56 88
e 56 89
e 56 90
e 56 91
e 56 92
e 56 93
e 56 94
e 56 96
e 56 98
e 56 99
e 56 100
e 57 61
e 57 68
e 57 69
e 57 71
e 57 78
e 57 83
e 57 84
e 57 86
e 57 87
e 57 88
e 57 89
e 57 90
e 57 91
e 57 92
e 57 93
e 57 94
e 57 95
e 57 96
e 57 97
e 57 98
e 57 99
e 57 100
e 58 83
e 58 87
e 58 88
e 58 89
e 58 91
e 58 92
e 58 93
e 58 94
e 58 95
e 58 96
e 58 97
e 58 99
e 58 100
e 59 79
e 59 83
e 59 84
e 59 86
e 59 87
e 59 88
e 59 89
e 59 91
e 59 92
e 59 93
e 59 94
e 59 95
e 59 96
e 59 97
e 59 99
e 59 100
e 60 73
e 60 76
e 60 78
e 60 83
e 60 86
e 60 87
e 60 88
e 60 89
e 60 90
e 60 91
e 60 93
e 60 94
e 60 95
e 60 96
e 60 97
e 60 98
e 60 99
e 60 100
e 61 62
e 61 64
e 61 66
e 61 67
e 61 82
e 61 83
e 61 84
e 61 86
e 61 87
e 61 88
e 61 89
e 61 90
e 61 91
e 61 92
e 61 93
e 61 94
e 61 95
e 61 97
e 61 98
e 61 99
e 61 100
e 62 73
e 62 76
e 62 80
e 62 81
e 62 83
e 62 85
e 62 86
e 62 87
e 62 88
e 62 89
e 62 90
e 62 91
e 62 93
e 62 94
e 62 95
e 62 96
e 62 97
e 62 98
e 62 99
e 62 100
e 63 64
e 63 78
e 63 79
e 63 83
e 63 86
e 63 87
e 63 88
e 63 89
e 63 90
e 63 91
e 63 93
e 63 94
e 63 95
e 63 96
e 63 97
e 63 98
e 63 99
e 63 100
e 64 65
e 64 67
e 64 68
e 64 77
e 64 79
e 64 81
e 64 85
e 64 86
e 64 87
e 64 88
e 64 89
e 64 90
e 64 91
e 64 92
e 64 93
e 64 94
e 64 95
e 64 96
e 64 97
e 64 98
e 64 99
e 64 100
e 65 79
e 65 82
e 65 83
e 65 84
e 65 85
e 65 86
e 65 87
e 65 88
e 65 89
e 65 90
e 65 91
e 65 92
e 65 93
e 65 94
e 65 95
e 65 96
e 65 97
e 65 99
e 65 100
e 66 76
e 66 79
e 66 80
e 66 82
e 66 83
e 66 84
e 66 85
e 66 86
e 66 87
e 66 88
e 66 89
e 66 91
e 66 92
e 66 93
e 66 94
e 66 95
e 66 96
e 66 97
e 66 98
e 66 99
e 66 100
e 67 76
e 67 77
e 67 82
e 67 83
e 67 84
e 67 85
e 67 86
e 67 87
e 67 88
e 67 89
e 67 90
e 67 91
e 67 92
e 67 93
e 67 94
e 67 95
e 67 96
e 67 98
e 67 99
e 67 100
e 68 74
e 68 77
e 68 78
e 68 79
e 68 82
e 68 83
e 68 84
e 68 85
e 68 86
e 68 88
e 68 89
e 68 90
e 68 91
e 68 92
e 68 93
e 68 94
e 68 95
e 68 97
e 68 98
e 68 99
e 68 100
e 69 72
e 69 82
e 69 83
e 69 84
e 69 85
e 69 86
e 69 87
e 69 88
e 69 89
e 69 90
e 69 91
e 69 92
e 69 93
e 69 94
e 69 95
e 69 96
e 69 97
e 69 98
e 69 99
e 69 100
e 70 71
e 70 77
e 70 79
e 70 81
e 70 82
e 70 83
e 70 84
e 70 85
e 70 86
e 70 87
e 70 88
e 70 89
e 70 90
e 70 91
e 70 92
e 70 93
e 70 95
e 70 96
e 70 97
e 70 98
e 70 99
e 70 100
e 71 75
e 71 77
e 71 80
e 71 82
e 71 83
e 71 84
e 71 85
e 71 86
e 71 87
e 71 88
e 71 89
e 71 90
e 71 91
e 71 92
e 71 93
e 71 94
e 71 95
e 71 96
e 71 98
e 71 99
e 71 100
e 72 81
e 72 82
e 72 83
e 72 84
e 72 85
e 72 86
e 72 87
e 72 88
e 72 89
e 72 90
e 72 91
e 72 92
e 72 93
e 72 94
e 72 95
e 72 96
e 72 97
e 72 98
e 72 99
e 72 100
e 73 74
e 73 75
e 73 76
e 73 77
e 73 79
e 73 80
e 73 82
e 73 83
e 73 84
e 73 85
e 73 86
e 73 87
e 73 88
e 73 89
e 73 90
e 73 91
e 73 92
e 73 93
e 73 94
e 73 96
e 73 97
e 73 99
e 73 100
e 74 80
e 74 82
e 74 83
e 74 84
e 74 85
e 74 86
e 74 87
e 74 88
e 74 89
e 74 90
e 74 92
e 74 93
e 74 94
e 74 95
e 74 96
e 74 97
e 74 98
e 74 99
e 74 100
e 75 78
e 75 80
e 75 82
e 75 83
e 75 84
e 75 85
e 75 86
e 75 87
e 75 88
e 75 89
e 75 90
e 75 91
e 75 92
e 75 93
e 75 94
e 75 96
e 75 98
e 75 99
e 75 100
e 76 77
e 76 80
e 76 82
e 76 83
e 76 84
e 76 85
e 76 87
e 76 88
e 76 89
e 76 90
e 76 91
e 76 92
e 76 93
e 76 94
e 76 97
e 76 98
e 76 99
e 76 100
e 77 79
e 77 80
e 77 81
e 77 82
e 77 83
e 77 84
e 77 85
e 77 86
e 77 87
e 77 88
e 77 89
e 77 90
e 77 91
e 77 92
e 77 94
e 77 95
e 77 96
e 77 97
e 77 98
e 77 99
e 77 100
e 78 79
e 78 81
e 78 82
e 78 83
e 78 84
e 78 85
e 78 86
e 78 87
e 78 88
e 78 89
e 78 90
e 78 91
e 78 92
e 78 93
e 78 94
e 78 95
e 78 96
e 78 97
e 78 98
e 78 99
e 78 100
e 79 82
e 79 83
e 79 84
e 79 86
e 79 88
e 79 89
e 79 90
e 79 91
e 79 92
e 79 93
e 79 94
e 79 95
e 79 96
e 79 97
e 79 98
e 79 99
e 79 100
e 80 82
e 80 83
e 80 84
e 80 85
e 80 86
e 80 87
e 80 88
e 80 89
e 80 90
e 80 91
e 80 92
e 80 93
e 80 94
e 80 95
e 80 97
e 80 98
e 80 99
e 80 100
e 81 82
e 81 83
e 81 84
e 81 85
e 81 86
e 81 87
e 81 88
e 81 89
e 81 90
e 81 91
e 81 92
e 81 93
e 81 94
e 81 96
e 81 97
e 81 98
e 81 99
e 81 100
e 82 83
e 82 85
e 82 87
e 83 84
e 83 91
e 84 94
e 84 95
e 85 88
e 85 89
e 85 91
e 85 93
e 85 97
e 86 87
e 86 88
e 86 92
e 87 94
e 88 92
e 88 93
e 88 95
e 89 92
e 89 93
e 90 93
e 90 96
e 90 99
e 91 92
e 91 97
e 92 95
e 93 95
e 94 95
e 94 96
e 94 99
e 95 99
e 96 97
e 97 100
